86 22 81 18 45 99 7 19 85 16 60 32 6 3 93 42 79 65 9 91 68 33 30 13 77 94 15 31 63 75 53 2 0 83 70 64 66 35 27 38 96 46 4 21 43 17 28 98 11 76 10 51 29 12 89 78 92 95 58 26 36 24 44 41 74 61 56 88 97 39 55 72 49 52 50 62 67 54 90 8 34 59 40 23 71 84 47 5 25 69 82 48 20 87 14 1 37 80 57 73 

